c A SAT instance generated from a 3-CNF formula that had 26 clauses and 13 variables
p cnf 13 26
7 13 -8 0
9 7 3 0
-10 -5 -12 0
11 -5 12 0
-9 -10 -11 0
-5 3 6 0
7 -11 -6 0
-3 -5 -11 0
-7 -3 -10 0
6 5 -3 0
-2 1 13 0
-9 -11 12 0
-13 -4 -12 0
3 2 -10 0
7 -12 -5 0
9 7 11 0
-9 13 5 0
-5 -1 -9 0
12 7 4 0
-7 -5 8 0
5 -7 -2 0
1 -2 12 0
-5 -6 2 0
-10 6 -2 0
8 4 -9 0
7 -10 -4 0
